NAME: test1898
TYPE: TSP
DIMENSION: 11
EDGE_WEIGHT_TYPE: EUC_2D
NODE_COORD_SECTION
1 10.027468896876313 51.39710922379812
2 73.02922735295371 2.755263672388586
3 77.69483084858717 21.682223837278624
4 40.597086198677026 18.925588909479973
5 69.66366016050107 12.757825783342325
6 52.68158334763356 92.83981589415413
7 56.54411958165492 58.858254069473816
8 48.80762718654999 50.14156431274546
9 31.989405980357567 3.4313111450309353
10 58.99379774169235 90.62316730075345
11 22.60628517695318 15.024606065192781
EOF
